
  32    4
  10   10   10   10

   0   0   0   0   0   5 2 6 7 30 31 
   1   1   1   0   1   4 29 27 16 3 
   2   0   3   1   5   3 28 24 4 
   2   4   4   0   3   2 25 5 
   5   7   3   0   3   2 26 8 
   7   0   7   6   6   7 27 25 24 22 21 15 10 
   3   5   5   0   3   4 27 24 20 9 
   8   4   0   5   2   2 15 9 
   9   5   2   3   0   4 23 22 21 10 
   5   4   0   2   3   1 11 
   5   3   3   0   4   2 19 12 
   7   3   8   5   0   2 18 13 
  10   0   3   3   4   1 14 
   9   0   5   3   6   1 17 
   3   0   6   2   4   1 20 
   7   3   0   8   6   1 20 
   3   5   3   0   4   1 32
   8   4   0   4   3   1 32
   4   3   0   3   4   1 32
   4   4   4   3   0   1 32
   7   5   6   0   3   1 32
   1   2   6   0   4   1 32
  10   2   0   4   6   1 32
   2   0   4   4   6   1 32
   8   0   3   7   5   1 32
   1   3   2   4   0   1 32
  10   3   2   0   4   1 32
   8   6   0   7   2   1 32
   5   7   5   2   0   1 32
   8   5   3   0   4   1 32
   7   4   4   0   5   1 32
   0   0   0   0   0   0 
